unsat
(:added-eqs                       710082
 :arith-eq-adapter                2353
 :arith-bound-propagations-lp     3706
 :arith-branch                    40
 :arith-conflicts                 9104
 :arith-cube-calls                18
 :arith-diseq                     54096
 :arith-fixed-eqs                 78237
 :arith-gcd-calls                 522
 :arith-gomory-cuts               33
 :arith-grobner-calls             587
 :arith-grobner-conflicts         404
 :arith-hnf-calls                 1
 :arith-horner-calls              160
 :arith-horner-conflicts          12
 :arith-horner-cross-nested-forms 85217
 :arith-lower                     261225
 :arith-make-feasible             98194
 :arith-max-columns               4861
 :arith-max-rows                  1908
 :arith-nla-add-bounds            271
 :arith-nla-lemmas                3773
 :arith-nla-propagate-bounds      4588
 :arith-nla-propagate-eq          116455
 :arith-nra-calls                 115
 :arith-offset-eqs                90262
 :arith-patches                   522
 :arith-patches-success           465
 :arith-upper                     492852
 :binary-propagations             1124693
 :cnf-encoding-aux-vars           221
 :conflicts                       2192
 :decisions                       742984
 :del-clause                      7201
 :elim-unconstrained              431
 :final-checks                    1562
 :max-memory                      152.00
 :memory                          104.35
 :minimized-lits                  1339
 :mk-bool-var                     21195
 :mk-clause                       10268
 :mk-clause-binary                46229
 :nlsat-conflicts                 56830
 :nlsat-decisions                 1435684
 :nlsat-propagations              2348759
 :nlsat-restarts                  3
 :nlsat-stages                    711840
 :num-allocs                      96882774483.00
 :num-checks                      2
 :propagations                    1376029
 :restarts                        18
 :rlimit-count                    30415122
 :solve-eqs-elim-vars             389
 :solve-eqs-steps                 3155
 :time                            21.13
 :total-time                      21.15)
